100 20 100
84 71 18 30 12 68 17 29 53 1 9 64 23 64 60 24 61 40 96 25 94 53 52 24 14 90 79 24 10 14 77 94 85 47 76 50 15 45 31 20 46 41 37 69 57 97 46 70 89 42 95 36 47 48 60 61 90 40 85 52 6 62 98 43 9 74 45 76 19 77 48 17 70 37 87 79 35 85 49 76 27 97 12 74 97 25 35 87 17 20 39 23 34 89 18 95 63 16 23 34 
